data;
set K:= K1 K2 K3 K4 K5 K6 K7 ;

set F:= F1 F2 ;

set Q:= Q1 Q2 ;

param T:= 45;
param V: 
	K1  K2  K3  K4  K5  K6  K7  :=
Q1	1   1   1   1   0   0   0   
Q2	0   0   0   0   1   1   1   
; # if resorce k is of type q

param TF:= 
K1 6
K2 6
K3 6
K4 6
K5 12
K6 12
K7 12
; # number of continuous time slots resource can fly

param TR:= 
K1 2
K2 2
K3 2
K4 2
K5 4
K6 4
K7 4
; #  number of continuous time slots resource k needs to rest between flights

param P:= 
K1 36
K2 36
K3 36
K4 36
K5 36
K6 36
K7 36
; #  number of continuous time slots a pilot can be present including rest times for resource k 

param N:= 
K1 4
K2 4
K3 4
K4 4
K5 2
K6 1
K7 2
; # max number of flights resource k can fly in the total time period

param A: 
	K1  K2  K3  K4  K5  K6  K7  :=
1	1   1   1   1   1   0   1   
2	1   1   1   1   1   0   1   
3	1   1   1   1   1   0   1   
4	1   1   1   1   1   0   1   
5	1   1   1   1   1   0   1   
6	1   1   1   1   1   0   1   
7	1   1   1   1   1   0   1   
8	1   1   1   1   1   0   1   
9	1   1   1   1   1   0   1   
10	1   1   1   1   1   0   1   
11	1   1   1   1   1   0   1   
12	1   1   1   1   1   0   1   
13	1   1   1   1   1   0   1   
14	1   1   1   1   1   1   1   
15	1   1   1   1   1   1   1   
16	1   1   1   1   1   1   1   
17	1   1   1   1   1   1   1   
18	1   1   1   1   1   1   1   
19	1   1   1   1   1   1   1   
20	1   1   1   1   1   1   1   
21	1   1   1   1   1   1   1   
22	1   1   1   1   1   1   1   
23	1   1   1   1   1   1   1   
24	1   1   1   1   1   1   1   
25	1   1   1   1   1   1   1   
26	1   1   1   1   1   1   1   
27	1   1   1   1   1   1   1   
28	1   1   1   1   1   1   1   
29	1   1   1   1   1   1   1   
30	1   1   1   1   1   1   1   
31	1   1   1   1   1   1   1   
32	1   1   1   1   1   1   1   
33	1   1   1   1   1   1   1   
34	1   1   1   1   1   1   1   
35	1   1   1   1   1   1   1   
36	1   1   1   1   1   1   1   
37	1   1   1   1   1   1   1   
38	1   1   1   1   1   1   1   
39	1   1   1   1   1   1   1   
40	1   1   1   1   1   1   1   
41	1   1   1   1   1   1   1   
42	1   1   1   1   1   1   1   
43	1   1   1   1   1   1   1   
44	1   1   1   1   1   1   1   
45	1   1   1   1   1   1   1   
; # availability of resorce k in time slot t

param B: 
	F1  F2  :=
Q1	1   0   
Q2	0   0   
; # if front f requires resources of type q

param U: 
	F1  F2  :=
K1	0   0   
K2	0   0   
K3	0   0   
K4	0   0   
K5	0   0   
K6	1   1   
K7	1   1   
; # transit time of resource

param C:= 
K1 900
K2 900
K3 1500
K4 4500
K5 5500
K6 5500
K7 5500
; #  water capacity of resource k

param S:= 
F1 9
F2 7
; # max number of resources that can fly at front f in the same time slot

param D:= 

[*,*,F1 ]:  K1    K2    K3    K4    K5    K6    K7    :=
1           1.62  1.62  1.62  1.29  0.97  0.97  0.97  
2           1.62  1.62  1.62  1.29  0.97  0.97  0.97  
3           1.62  1.62  1.62  1.29  0.97  0.97  0.97  
4           1.62  1.62  1.62  1.29  0.97  0.97  0.97  
5           1.62  1.62  1.62  1.29  0.97  0.97  0.97  
6           1.62  1.62  1.62  1.29  0.97  0.97  0.97  
7           1.62  1.62  1.62  1.29  0.97  0.97  0.97  
8           1.62  1.62  1.62  1.29  0.97  0.97  0.97  
9           1.62  1.62  1.62  1.29  0.97  0.97  0.97  
10          1.62  1.62  1.62  1.29  0.97  0.97  0.97  
11          1.62  1.62  1.62  1.29  0.97  0.97  0.97  
12          1.62  1.62  1.62  1.29  0.97  0.97  0.97  
13          1.62  1.62  1.62  1.29  0.97  0.97  0.97  
14          1.62  1.62  1.62  1.29  0.97  0.97  0.97  
15          1.62  1.62  1.62  1.29  0.97  0.97  0.97  
16          1.62  1.62  1.62  1.29  0.97  0.97  0.97  
17          1.62  1.62  1.62  1.29  0.97  0.97  0.97  
18          1.62  1.62  1.62  1.29  0.97  0.97  0.97  
19          1.62  1.62  1.62  1.29  0.97  0.97  0.97  
20          1.62  1.62  1.62  1.29  0.97  0.97  0.97  
21          1.62  1.62  1.62  1.29  0.97  0.97  0.97  
22          1.62  1.62  1.62  1.29  0.97  0.97  0.97  
23          1.62  1.62  1.62  1.29  0.97  0.97  0.97  
24          1.62  1.62  1.62  1.29  0.97  0.97  0.97  
25          1.54  1.54  1.54  1.23  0.92  0.92  0.92  
26          1.54  1.54  1.54  1.23  0.92  0.92  0.92  
27          1.54  1.54  1.54  1.23  0.92  0.92  0.92  
28          1.54  1.54  1.54  1.23  0.92  0.92  0.92  
29          1.54  1.54  1.54  1.23  0.92  0.92  0.92  
30          1.54  1.54  1.54  1.23  0.92  0.92  0.92  
31          1.54  1.54  1.54  1.23  0.92  0.92  0.92  
32          1.54  1.54  1.54  1.23  0.92  0.92  0.92  
33          1.54  1.54  1.54  1.23  0.92  0.92  0.92  
34          1.62  1.62  1.62  1.29  0.97  0.97  0.97  
35          1.62  1.62  1.62  1.29  0.97  0.97  0.97  
36          1.62  1.62  1.62  1.29  0.97  0.97  0.97  
37          1.62  1.62  1.62  1.29  0.97  0.97  0.97  
38          1.62  1.62  1.62  1.29  0.97  0.97  0.97  
39          1.62  1.62  1.62  1.29  0.97  0.97  0.97  
40          1.62  1.62  1.62  1.29  0.97  0.97  0.97  
41          1.62  1.62  1.62  1.29  0.97  0.97  0.97  
42          1.62  1.62  1.62  1.29  0.97  0.97  0.97  
43          1.62  1.62  1.62  1.29  0.97  0.97  0.97  
44          1.62  1.62  1.62  1.29  0.97  0.97  0.97  
45          1.62  1.62  1.62  1.29  0.97  0.97  0.97  

[*,*,F2 ]:  K1    K2    K3    K4    K5    K6    K7    :=
1           1.55  1.55  1.55  1.24  0.93  0.93  0.93  
2           1.55  1.55  1.55  1.24  0.93  0.93  0.93  
3           1.55  1.55  1.55  1.24  0.93  0.93  0.93  
4           1.55  1.55  1.55  1.24  0.93  0.93  0.93  
5           1.55  1.55  1.55  1.24  0.93  0.93  0.93  
6           1.55  1.55  1.55  1.24  0.93  0.93  0.93  
7           1.55  1.55  1.55  1.24  0.93  0.93  0.93  
8           1.55  1.55  1.55  1.24  0.93  0.93  0.93  
9           1.55  1.55  1.55  1.24  0.93  0.93  0.93  
10          1.55  1.55  1.55  1.24  0.93  0.93  0.93  
11          1.55  1.55  1.55  1.24  0.93  0.93  0.93  
12          1.55  1.55  1.55  1.24  0.93  0.93  0.93  
13          1.55  1.55  1.55  1.24  0.93  0.93  0.93  
14          1.55  1.55  1.55  1.24  0.93  0.93  0.93  
15          1.55  1.55  1.55  1.24  0.93  0.93  0.93  
16          1.55  1.55  1.55  1.24  0.93  0.93  0.93  
17          1.55  1.55  1.55  1.24  0.93  0.93  0.93  
18          1.55  1.55  1.55  1.24  0.93  0.93  0.93  
19          1.55  1.55  1.55  1.24  0.93  0.93  0.93  
20          1.55  1.55  1.55  1.24  0.93  0.93  0.93  
21          1.55  1.55  1.55  1.24  0.93  0.93  0.93  
22          1.55  1.55  1.55  1.24  0.93  0.93  0.93  
23          1.55  1.55  1.55  1.24  0.93  0.93  0.93  
24          1.55  1.55  1.55  1.24  0.93  0.93  0.93  
25          1.48  1.48  1.48  1.18  0.88  0.88  0.88  
26          1.48  1.48  1.48  1.18  0.88  0.88  0.88  
27          1.48  1.48  1.48  1.18  0.88  0.88  0.88  
28          1.48  1.48  1.48  1.18  0.88  0.88  0.88  
29          1.48  1.48  1.48  1.18  0.88  0.88  0.88  
30          1.48  1.48  1.48  1.18  0.88  0.88  0.88  
31          1.48  1.48  1.48  1.18  0.88  0.88  0.88  
32          1.48  1.48  1.48  1.18  0.88  0.88  0.88  
33          1.48  1.48  1.48  1.18  0.88  0.88  0.88  
34          1.55  1.55  1.55  1.24  0.93  0.93  0.93  
35          1.55  1.55  1.55  1.24  0.93  0.93  0.93  
36          1.55  1.55  1.55  1.24  0.93  0.93  0.93  
37          1.55  1.55  1.55  1.24  0.93  0.93  0.93  
38          1.55  1.55  1.55  1.24  0.93  0.93  0.93  
39          1.55  1.55  1.55  1.24  0.93  0.93  0.93  
40          1.55  1.55  1.55  1.24  0.93  0.93  0.93  
41          1.55  1.55  1.55  1.24  0.93  0.93  0.93  
42          1.55  1.55  1.55  1.24  0.93  0.93  0.93  
43          1.55  1.55  1.55  1.24  0.93  0.93  0.93  
44          1.55  1.55  1.55  1.24  0.93  0.93  0.93  
45          1.55  1.55  1.55  1.24  0.93  0.93  0.93  
; # downloads resource k can do at front f in time t if intermediate time slot

param E:= 

[*,*,F1 ]:  K1    K2    K3    K4    K5    K6    K7    :=
1           0.23  0.36  0.68  0.09  0.41  0.49  0.14  
2           0.23  0.36  0.68  0.09  0.41  0.49  0.14  
3           0.23  0.36  0.68  0.09  0.41  0.49  0.14  
4           0.23  0.36  0.68  0.09  0.41  0.49  0.14  
5           0.23  0.36  0.68  0.09  0.41  0.49  0.14  
6           0.23  0.36  0.68  0.09  0.41  0.49  0.14  
7           0.23  0.36  0.68  0.09  0.41  0.49  0.14  
8           0.23  0.36  0.68  0.09  0.41  0.49  0.14  
9           0.23  0.36  0.68  0.09  0.41  0.49  0.14  
10          0.23  0.36  0.68  0.09  0.41  0.49  0.14  
11          0.23  0.36  0.68  0.09  0.41  0.49  0.14  
12          0.23  0.36  0.68  0.09  0.41  0.49  0.14  
13          0.23  0.36  0.68  0.09  0.41  0.49  0.14  
14          0.23  0.36  0.68  0.09  0.41  0.49  0.14  
15          0.23  0.36  0.68  0.09  0.41  0.49  0.14  
16          0.23  0.36  0.68  0.09  0.41  0.49  0.14  
17          0.23  0.36  0.68  0.09  0.41  0.49  0.14  
18          0.23  0.36  0.68  0.09  0.41  0.49  0.14  
19          0.23  0.36  0.68  0.09  0.41  0.49  0.14  
20          0.23  0.36  0.68  0.09  0.41  0.49  0.14  
21          0.23  0.36  0.68  0.09  0.41  0.49  0.14  
22          0.23  0.36  0.68  0.09  0.41  0.49  0.14  
23          0.23  0.36  0.68  0.09  0.41  0.49  0.14  
24          0.23  0.36  0.68  0.09  0.41  0.49  0.14  
25          0.22  0.34  0.65  0.09  0.39  0.47  0.13  
26          0.22  0.34  0.65  0.09  0.39  0.47  0.13  
27          0.22  0.34  0.65  0.09  0.39  0.47  0.13  
28          0.22  0.34  0.65  0.09  0.39  0.47  0.13  
29          0.22  0.34  0.65  0.09  0.39  0.47  0.13  
30          0.22  0.34  0.65  0.09  0.39  0.47  0.13  
31          0.22  0.34  0.65  0.09  0.39  0.47  0.13  
32          0.22  0.34  0.65  0.09  0.39  0.47  0.13  
33          0.22  0.34  0.65  0.09  0.39  0.47  0.13  
34          0.23  0.36  0.68  0.09  0.41  0.49  0.14  
35          0.23  0.36  0.68  0.09  0.41  0.49  0.14  
36          0.23  0.36  0.68  0.09  0.41  0.49  0.14  
37          0.23  0.36  0.68  0.09  0.41  0.49  0.14  
38          0.23  0.36  0.68  0.09  0.41  0.49  0.14  
39          0.23  0.36  0.68  0.09  0.41  0.49  0.14  
40          0.23  0.36  0.68  0.09  0.41  0.49  0.14  
41          0.23  0.36  0.68  0.09  0.41  0.49  0.14  
42          0.23  0.36  0.68  0.09  0.41  0.49  0.14  
43          0.23  0.36  0.68  0.09  0.41  0.49  0.14  
44          0.23  0.36  0.68  0.09  0.41  0.49  0.14  
45          0.23  0.36  0.68  0.09  0.41  0.49  0.14  

[*,*,F2 ]:  K1    K2    K3    K4    K5    K6    K7    :=
1           0.23  0.23  0.67  0.10  0.35  0.47  0.09  
2           0.23  0.23  0.67  0.10  0.35  0.47  0.09  
3           0.23  0.23  0.67  0.10  0.35  0.47  0.09  
4           0.23  0.23  0.67  0.10  0.35  0.47  0.09  
5           0.23  0.23  0.67  0.10  0.35  0.47  0.09  
6           0.23  0.23  0.67  0.10  0.35  0.47  0.09  
7           0.23  0.23  0.67  0.10  0.35  0.47  0.09  
8           0.23  0.23  0.67  0.10  0.35  0.47  0.09  
9           0.23  0.23  0.67  0.10  0.35  0.47  0.09  
10          0.23  0.23  0.67  0.10  0.35  0.47  0.09  
11          0.23  0.23  0.67  0.10  0.35  0.47  0.09  
12          0.23  0.23  0.67  0.10  0.35  0.47  0.09  
13          0.23  0.23  0.67  0.10  0.35  0.47  0.09  
14          0.23  0.23  0.67  0.10  0.35  0.47  0.09  
15          0.23  0.23  0.67  0.10  0.35  0.47  0.09  
16          0.23  0.23  0.67  0.10  0.35  0.47  0.09  
17          0.23  0.23  0.67  0.10  0.35  0.47  0.09  
18          0.23  0.23  0.67  0.10  0.35  0.47  0.09  
19          0.23  0.23  0.67  0.10  0.35  0.47  0.09  
20          0.23  0.23  0.67  0.10  0.35  0.47  0.09  
21          0.23  0.23  0.67  0.10  0.35  0.47  0.09  
22          0.23  0.23  0.67  0.10  0.35  0.47  0.09  
23          0.23  0.23  0.67  0.10  0.35  0.47  0.09  
24          0.23  0.23  0.67  0.10  0.35  0.47  0.09  
25          0.22  0.22  0.63  0.09  0.34  0.45  0.09  
26          0.22  0.22  0.63  0.09  0.34  0.45  0.09  
27          0.22  0.22  0.63  0.09  0.34  0.45  0.09  
28          0.22  0.22  0.63  0.09  0.34  0.45  0.09  
29          0.22  0.22  0.63  0.09  0.34  0.45  0.09  
30          0.22  0.22  0.63  0.09  0.34  0.45  0.09  
31          0.22  0.22  0.63  0.09  0.34  0.45  0.09  
32          0.22  0.22  0.63  0.09  0.34  0.45  0.09  
33          0.22  0.22  0.63  0.09  0.34  0.45  0.09  
34          0.23  0.23  0.67  0.10  0.35  0.47  0.09  
35          0.23  0.23  0.67  0.10  0.35  0.47  0.09  
36          0.23  0.23  0.67  0.10  0.35  0.47  0.09  
37          0.23  0.23  0.67  0.10  0.35  0.47  0.09  
38          0.23  0.23  0.67  0.10  0.35  0.47  0.09  
39          0.23  0.23  0.67  0.10  0.35  0.47  0.09  
40          0.23  0.23  0.67  0.10  0.35  0.47  0.09  
41          0.23  0.23  0.67  0.10  0.35  0.47  0.09  
42          0.23  0.23  0.67  0.10  0.35  0.47  0.09  
43          0.23  0.23  0.67  0.10  0.35  0.47  0.09  
44          0.23  0.23  0.67  0.10  0.35  0.47  0.09  
45          0.23  0.23  0.67  0.10  0.35  0.47  0.09  
; # downloads resource k can do at front f in time t if starting or ending flight

param W: 
	F1        F2        :=
1	834.57    834.57    
2	3338.27   3338.27   
3	3338.27   3338.27   
4	3338.27   3338.27   
5	3338.27   3338.27   
6	3338.27   3338.27   
7	3338.27   3338.27   
8	3338.27   3338.27   
9	3338.27   3338.27   
10	3338.27   3338.27   
11	3338.27   3338.27   
12	3338.27   3338.27   
13	3338.27   3338.27   
14	3338.27   3338.27   
15	3338.27   3338.27   
16	3338.27   3338.27   
17	3338.27   3338.27   
18	3338.27   3338.27   
19	1483.68   1483.68   
20	1483.68   1483.68   
21	1483.68   1483.68   
22	1483.68   1483.68   
23	1483.68   1483.68   
24	1483.68   1483.68   
25	1483.68   1483.68   
26	1483.68   1483.68   
27	1483.68   1483.68   
28	1483.68   1483.68   
29	1483.68   1483.68   
30	1483.68   1483.68   
31	1483.68   1483.68   
32	1483.68   1483.68   
33	1483.68   1483.68   
34	1483.68   1483.68   
35	1483.68   1483.68   
36	1483.68   1483.68   
37	1483.68   1483.68   
38	1483.68   1483.68   
39	1483.68   1483.68   
40	1483.68   1483.68   
41	1483.68   1483.68   
42	1483.68   1483.68   
43	1483.68   1483.68   
44	1483.68   1483.68   
45	370.92    370.92    
; # water needed at front f in time slot t

param M := 100000000; 

param a1:= 10000000;

param a2:= 100;

param a3:= 0.0001;
